100 5
25 1000
20
30
10
40
20
20
20
10
20
30
40
20
10
10
20
20
20
20
40
10
10
40
30
10
20
30
20
10
10
10
20
10
10
30
20
40
10
30
10
30
20
10
20
10
10
10
10
10
10
30
19
3
5
16
16
19
23
20
19
17
9
3
6
17
16
16
9
21
27
23
14
8
5
8
16
31
7
27
30
13
10
9
14
18
2
28
13
19
25
6
13
14
3
23
6
26
35
9
15
3
40 50 0 960 0 0
25 85 613 853 10 3
22 75 92 332 10 1
22 85 411 651 10 1
20 80 584 824 10 2
20 85 40 280 10 1
18 75 328 568 10 1
15 75 240 480 10 1
15 80 307 547 10 1
10 35 311 551 10 1
10 40 459 699 10 3
8 40 135 375 10 1
8 45 163 403 10 2
5 35 593 833 10 3
5 45 35 275 10 2
2 40 114 354 10 3
0 40 195 435 10 1
0 45 643 883 10 2
44 5 275 515 10 1
42 10 194 434 10 2
42 15 477 717 10 1
40 5 155 395 10 1
40 15 315 555 10 3
38 5 141 381 10 3
38 15 621 861 10 1
35 5 664 904 10 2
95 30 469 709 10 3
95 35 86 326 10 3
92 30 89 329 10 3
90 35 134 374 10 3
88 30 186 426 10 2
88 35 105 345 10 2
87 30 561 801 10 3
85 25 51 291 10 3
85 35 427 667 10 3
67 85 597 837 10 1
65 85 43 283 10 1
65 82 497 737 10 2
62 80 218 458 10 3
60 80 36 276 10 3
60 85 269 509 10 1
58 75 316 556 10 3
55 80 33 273 10 3
55 85 514 754 10 3
55 82 157 397 10 2
20 82 37 277 10 1
18 80 429 669 10 3
2 45 45 285 10 2
42 5 664 904 10 3
42 12 380 620 10 3
72 35 447 687 10 2
55 20 266 506 10 3
25 30 115 355 10 2
20 50 315 555 10 2
55 60 541 781 10 1
30 60 539 779 10 2
50 35 497 737 10 3
30 25 337 577 10 3
15 10 662 902 10 3
10 20 42 282 10 3
15 60 634 874 10 3
45 65 198 438 10 2
65 35 107 347 10 1
65 20 39 279 10 3
45 30 131 371 10 2
35 40 11 251 10 3
41 37 506 746 10 3
64 42 208 448 10 2
40 60 552 792 10 1
31 52 97 337 10 2
35 69 690 930 10 1
65 55 181 421 10 3
63 65 27 267 10 1
2 60 226 466 10 3
20 20 585 825 10 1
5 5 172 412 10 2
60 12 208 448 10 1
23 3 660 900 10 1
8 56 305 545 10 1
6 68 292 532 10 3
47 47 702 942 10 3
49 58 295 535 10 1
27 43 92 332 10 2
37 31 45 285 10 2
57 29 335 575 10 3
63 23 284 524 10 2
21 24 289 529 10 1
12 24 299 539 10 1
24 58 200 440 10 2
67 5 653 893 10 2
37 47 299 539 10 1
49 42 659 899 10 2
53 43 14 254 10 3
61 52 688 928 10 3
57 48 332 572 10 3
56 37 40 280 10 1
55 54 502 742 10 1
4 18 487 727 10 1
26 52 112 352 10 3
26 35 248 488 10 1
31 67 690 930 10 1
75 81 0 960 5 4
12 56 0 960 5 4
52 60 0 960 5 4
75 19 0 960 5 4
46 26 0 960 5 4
0 1 0 0 0
0 0 0 0 0
0 0 0 0 0
0 1 0 0 0
0 0 0 0 0
0 0 0 0 0
0 0 0 0 0
0 0 0 0 0
0 0 0 0 0
0 1 0 0 0
0 0 0 0 0
0 1 0 0 0
0 1 0 0 0
0 1 0 0 0
0 1 0 0 0
0 0 0 0 0
0 1 0 0 0
0 0 0 0 0
0 0 0 0 1
0 0 0 0 0
0 0 0 0 0
0 0 0 0 1
0 0 0 0 1
0 0 0 0 0
0 0 0 0 1
0 0 0 1 0
0 0 0 1 0
0 0 0 1 0
0 0 0 1 0
0 0 0 1 0
0 0 0 1 0
0 0 0 1 0
0 0 0 1 0
0 0 0 1 0
0 0 0 0 0
0 0 0 0 0
1 0 0 0 0
1 0 0 0 0
1 0 0 0 0
0 0 0 0 0
0 0 1 0 0
1 0 0 0 0
1 0 0 0 0
1 0 0 0 0
0 0 0 0 0
0 1 0 0 0
0 1 0 0 0
0 0 0 0 1
0 0 0 0 1
0 0 0 1 0
0 0 0 0 1
0 0 0 0 1
0 1 0 0 0
0 0 0 0 0
0 1 0 0 0
0 0 0 0 1
0 0 0 0 1
0 0 0 0 1
0 1 0 0 0
0 1 0 0 0
0 0 1 0 0
0 0 0 0 0
0 0 0 1 0
0 0 0 0 1
0 0 0 0 1
0 0 0 0 1
0 0 1 0 0
0 0 0 0 0
0 1 0 0 0
0 0 0 0 0
0 0 1 0 0
0 0 0 0 0
0 1 0 0 0
0 0 0 0 0
0 0 0 0 1
0 0 0 0 0
0 0 0 0 0
0 0 0 0 0
0 1 0 0 0
0 0 1 0 0
0 0 0 0 0
0 1 0 0 0
0 0 0 0 1
0 0 0 0 1
0 0 0 1 0
0 0 0 0 0
0 0 0 0 0
0 1 0 0 0
0 0 0 1 0
0 0 0 0 0
0 0 0 0 1
0 0 1 0 0
0 0 1 0 0
0 0 1 0 0
0 0 0 0 0
0 0 0 0 0
0 0 0 0 0
0 1 0 0 0
0 0 0 0 0
0 0 0 0 0
